TYPE : TSP
DIMENSION: 36
EDGE_DATA_FORMAT: EDGE_LIST
EDGE_WEIGHT_TYPE: EXPLICIT
EDGE_WEIGHT_FORMAT: FULL_MATRIX 
EDGE_DATA_SECTION
0 1
0 2
0 3
0 4
0 5
0 6
0 7
0 8
0 9
0 10
0 11
0 12
0 13
0 14
0 15
1 0
1 2
1 3
1 4
1 5
1 6
1 7
1 11
1 12
1 16
1 20
1 21
1 22
1 23
1 24
1 30
1 34
2 0
2 1
2 3
2 4
2 5
2 7
2 9
2 12
2 14
2 16
2 17
2 20
2 21
2 24
2 25
2 27
2 28
2 29
2 31
3 0
3 1
3 2
3 4
3 5
3 8
3 13
3 17
3 18
3 21
3 23
3 24
3 25
3 26
3 27
3 28
3 32
3 33
3 34
4 0
4 1
4 2
4 3
4 5
4 9
4 14
4 18
4 19
4 22
4 25
4 26
4 28
4 30
4 32
4 33
4 35
5 0
5 1
5 2
5 3
5 4
5 10
5 15
5 19
5 23
5 26
5 29
5 31
5 33
5 34
5 35
6 0
6 1
6 7
6 8
6 9
6 10
6 11
6 16
6 17
6 18
6 19
6 20
6 21
6 22
6 23
7 0
7 1
7 2
7 6
7 8
7 9
7 10
7 12
7 16
7 24
7 25
7 26
7 27
7 28
7 29
8 0
8 3
8 6
8 7
8 9
8 10
8 13
8 16
8 17
8 20
8 24
8 30
8 31
8 32
8 33
9 0
9 2
9 4
9 6
9 7
9 8
9 10
9 14
9 18
9 21
9 24
9 25
9 30
9 34
9 35
10 0
10 5
10 6
10 7
10 8
10 9
10 15
10 17
10 19
10 22
10 26
10 27
10 30
10 31
10 34
11 0
11 1
11 6
11 12
11 13
11 14
11 15
11 16
11 20
11 24
11 27
11 30
11 32
11 34
11 35
12 0
12 1
12 2
12 7
12 11
12 13
12 14
12 15
12 17
12 20
12 21
12 25
12 28
12 31
12 33
13 0
13 3
13 8
13 11
13 12
13 14
13 15
13 16
13 18
13 20
13 21
13 22
13 26
13 27
13 29
14 0
14 2
14 4
14 9
14 11
14 12
14 13
14 15
14 19
14 21
14 22
14 23
14 24
14 28
14 32
15 0
15 5
15 10
15 11
15 12
15 13
15 14
15 17
15 22
15 23
15 27
15 29
15 30
15 33
15 35
16 1
16 2
16 6
16 7
16 8
16 11
16 13
16 17
16 18
16 19
16 20
16 24
16 27
16 28
16 29
16 30
16 34
17 2
17 3
17 6
17 8
17 10
17 12
17 15
17 16
17 18
17 19
17 20
17 22
17 24
17 25
17 27
17 30
17 31
17 32
17 33
18 3
18 4
18 6
18 9
18 13
18 16
18 17
18 19
18 21
18 25
18 26
18 27
18 29
18 30
18 31
18 32
18 35
19 4
19 5
19 6
19 10
19 14
19 16
19 17
19 18
19 22
19 26
19 28
19 31
19 32
19 34
19 35
20 1
20 2
20 6
20 8
20 11
20 12
20 13
20 16
20 17
20 21
20 22
20 23
20 25
20 27
20 31
20 32
20 35
21 1
21 2
21 3
21 6
21 9
21 12
21 13
21 14
21 18
21 20
21 22
21 23
21 24
21 26
21 27
21 28
21 33
22 1
22 4
22 6
22 10
22 13
22 14
22 15
22 17
22 19
22 20
22 21
22 23
22 27
22 28
22 29
22 30
22 32
23 1
23 3
23 5
23 6
23 14
23 15
23 20
23 21
23 22
23 25
23 28
23 29
23 33
23 34
23 35
24 1
24 2
24 3
24 7
24 8
24 9
24 11
24 14
24 16
24 17
24 21
24 25
24 26
24 30
24 32
24 33
24 34
25 2
25 3
25 4
25 7
25 9
25 12
25 17
25 18
25 20
25 23
25 24
25 26
25 28
25 30
25 31
25 34
25 35
26 3
26 4
26 5
26 7
26 10
26 13
26 18
26 19
26 21
26 24
26 25
26 27
26 31
26 33
26 34
27 2
27 3
27 7
27 10
27 11
27 13
27 15
27 16
27 17
27 18
27 20
27 21
27 22
27 26
27 28
27 29
27 30
27 32
27 35
28 2
28 3
28 4
28 7
28 12
28 14
28 16
28 19
28 21
28 22
28 23
28 25
28 27
28 29
28 32
28 33
28 34
29 2
29 5
29 7
29 13
29 15
29 16
29 18
29 22
29 23
29 27
29 28
29 31
29 32
29 33
29 35
30 1
30 4
30 8
30 9
30 10
30 11
30 15
30 16
30 17
30 18
30 22
30 24
30 25
30 27
30 31
30 34
30 35
31 2
31 5
31 8
31 10
31 12
31 17
31 18
31 19
31 20
31 25
31 26
31 29
31 30
31 32
31 34
32 3
32 4
32 8
32 11
32 14
32 17
32 18
32 19
32 20
32 22
32 24
32 27
32 28
32 29
32 31
32 33
32 35
33 3
33 4
33 5
33 8
33 12
33 15
33 17
33 21
33 23
33 24
33 26
33 28
33 29
33 32
33 35
34 1
34 3
34 5
34 9
34 10
34 11
34 16
34 19
34 23
34 24
34 25
34 26
34 28
34 30
34 31
35 4
35 5
35 9
35 11
35 15
35 18
35 19
35 20
35 23
35 25
35 27
35 29
35 30
35 32
35 33
-1
EDGE_WEIGHT_SECTION
0.0	1.0	1.0	1.0	1.0	1.0	1.0	1.0	1.0	1.0	1.0	1.0	1.0	1.0	1.0	1.0	0.0	0.0	0.0	0.0	0.0	0.0	0.0	0.0	0.0	0.0	0.0	0.0	0.0	0.0	0.0	0.0	0.0	0.0	0.0	0.0
1.0	0.0	1.0	1.0	1.0	1.0	1.0	1.0	0.0	0.0	0.0	1.0	1.0	0.0	0.0	0.0	1.0	0.0	0.0	0.0	1.0	1.0	1.0	1.0	1.0	0.0	0.0	0.0	0.0	0.0	1.0	0.0	0.0	0.0	1.0	0.0
1.0	1.0	0.0	1.0	1.0	1.0	0.0	1.0	0.0	1.0	0.0	0.0	1.0	0.0	1.0	0.0	1.0	1.0	0.0	0.0	1.0	1.0	0.0	0.0	1.0	1.0	0.0	1.0	1.0	1.0	0.0	1.0	0.0	0.0	0.0	0.0
1.0	1.0	1.0	0.0	1.0	1.0	0.0	0.0	1.0	0.0	0.0	0.0	0.0	1.0	0.0	0.0	0.0	1.0	1.0	0.0	0.0	1.0	0.0	1.0	1.0	1.0	1.0	1.0	1.0	0.0	0.0	0.0	1.0	1.0	1.0	0.0
1.0	1.0	1.0	1.0	0.0	1.0	0.0	0.0	0.0	1.0	0.0	0.0	0.0	0.0	1.0	0.0	0.0	0.0	1.0	1.0	0.0	0.0	1.0	0.0	0.0	1.0	1.0	0.0	1.0	0.0	1.0	0.0	1.0	1.0	0.0	1.0
1.0	1.0	1.0	1.0	1.0	0.0	0.0	0.0	0.0	0.0	1.0	0.0	0.0	0.0	0.0	1.0	0.0	0.0	0.0	1.0	0.0	0.0	0.0	1.0	0.0	0.0	1.0	0.0	0.0	1.0	0.0	1.0	0.0	1.0	1.0	1.0
1.0	1.0	0.0	0.0	0.0	0.0	0.0	1.0	1.0	1.0	1.0	1.0	0.0	0.0	0.0	0.0	1.0	1.0	1.0	1.0	1.0	1.0	1.0	1.0	0.0	0.0	0.0	0.0	0.0	0.0	0.0	0.0	0.0	0.0	0.0	0.0
1.0	1.0	1.0	0.0	0.0	0.0	1.0	0.0	1.0	1.0	1.0	0.0	1.0	0.0	0.0	0.0	1.0	0.0	0.0	0.0	0.0	0.0	0.0	0.0	1.0	1.0	1.0	1.0	1.0	1.0	0.0	0.0	0.0	0.0	0.0	0.0
1.0	0.0	0.0	1.0	0.0	0.0	1.0	1.0	0.0	1.0	1.0	0.0	0.0	1.0	0.0	0.0	1.0	1.0	0.0	0.0	1.0	0.0	0.0	0.0	1.0	0.0	0.0	0.0	0.0	0.0	1.0	1.0	1.0	1.0	0.0	0.0
1.0	0.0	1.0	0.0	1.0	0.0	1.0	1.0	1.0	0.0	1.0	0.0	0.0	0.0	1.0	0.0	0.0	0.0	1.0	0.0	0.0	1.0	0.0	0.0	1.0	1.0	0.0	0.0	0.0	0.0	1.0	0.0	0.0	0.0	1.0	1.0
1.0	0.0	0.0	0.0	0.0	1.0	1.0	1.0	1.0	1.0	0.0	0.0	0.0	0.0	0.0	1.0	0.0	1.0	0.0	1.0	0.0	0.0	1.0	0.0	0.0	0.0	1.0	1.0	0.0	0.0	1.0	1.0	0.0	0.0	1.0	0.0
1.0	1.0	0.0	0.0	0.0	0.0	1.0	0.0	0.0	0.0	0.0	0.0	1.0	1.0	1.0	1.0	1.0	0.0	0.0	0.0	1.0	0.0	0.0	0.0	1.0	0.0	0.0	1.0	0.0	0.0	1.0	0.0	1.0	0.0	1.0	1.0
1.0	1.0	1.0	0.0	0.0	0.0	0.0	1.0	0.0	0.0	0.0	1.0	0.0	1.0	1.0	1.0	0.0	1.0	0.0	0.0	1.0	1.0	0.0	0.0	0.0	1.0	0.0	0.0	1.0	0.0	0.0	1.0	0.0	1.0	0.0	0.0
1.0	0.0	0.0	1.0	0.0	0.0	0.0	0.0	1.0	0.0	0.0	1.0	1.0	0.0	1.0	1.0	1.0	0.0	1.0	0.0	1.0	1.0	1.0	0.0	0.0	0.0	1.0	1.0	0.0	1.0	0.0	0.0	0.0	0.0	0.0	0.0
1.0	0.0	1.0	0.0	1.0	0.0	0.0	0.0	0.0	1.0	0.0	1.0	1.0	1.0	0.0	1.0	0.0	0.0	0.0	1.0	0.0	1.0	1.0	1.0	1.0	0.0	0.0	0.0	1.0	0.0	0.0	0.0	1.0	0.0	0.0	0.0
1.0	0.0	0.0	0.0	0.0	1.0	0.0	0.0	0.0	0.0	1.0	1.0	1.0	1.0	1.0	0.0	0.0	1.0	0.0	0.0	0.0	0.0	1.0	1.0	0.0	0.0	0.0	1.0	0.0	1.0	1.0	0.0	0.0	1.0	0.0	1.0
0.0	1.0	1.0	0.0	0.0	0.0	1.0	1.0	1.0	0.0	0.0	1.0	0.0	1.0	0.0	0.0	0.0	1.0	1.0	1.0	1.0	0.0	0.0	0.0	1.0	0.0	0.0	1.0	1.0	1.0	1.0	0.0	0.0	0.0	1.0	0.0
0.0	0.0	1.0	1.0	0.0	0.0	1.0	0.0	1.0	0.0	1.0	0.0	1.0	0.0	0.0	1.0	1.0	0.0	1.0	1.0	1.0	0.0	1.0	0.0	1.0	1.0	0.0	1.0	0.0	0.0	1.0	1.0	1.0	1.0	0.0	0.0
0.0	0.0	0.0	1.0	1.0	0.0	1.0	0.0	0.0	1.0	0.0	0.0	0.0	1.0	0.0	0.0	1.0	1.0	0.0	1.0	0.0	1.0	0.0	0.0	0.0	1.0	1.0	1.0	0.0	1.0	1.0	1.0	1.0	0.0	0.0	1.0
0.0	0.0	0.0	0.0	1.0	1.0	1.0	0.0	0.0	0.0	1.0	0.0	0.0	0.0	1.0	0.0	1.0	1.0	1.0	0.0	0.0	0.0	1.0	0.0	0.0	0.0	1.0	0.0	1.0	0.0	0.0	1.0	1.0	0.0	1.0	1.0
0.0	1.0	1.0	0.0	0.0	0.0	1.0	0.0	1.0	0.0	0.0	1.0	1.0	1.0	0.0	0.0	1.0	1.0	0.0	0.0	0.0	1.0	1.0	1.0	0.0	1.0	0.0	1.0	0.0	0.0	0.0	1.0	1.0	0.0	0.0	1.0
0.0	1.0	1.0	1.0	0.0	0.0	1.0	0.0	0.0	1.0	0.0	0.0	1.0	1.0	1.0	0.0	0.0	0.0	1.0	0.0	1.0	0.0	1.0	1.0	1.0	0.0	1.0	1.0	1.0	0.0	0.0	0.0	0.0	1.0	0.0	0.0
0.0	1.0	0.0	0.0	1.0	0.0	1.0	0.0	0.0	0.0	1.0	0.0	0.0	1.0	1.0	1.0	0.0	1.0	0.0	1.0	1.0	1.0	0.0	1.0	0.0	0.0	0.0	1.0	1.0	1.0	1.0	0.0	1.0	0.0	0.0	0.0
0.0	1.0	0.0	1.0	0.0	1.0	1.0	0.0	0.0	0.0	0.0	0.0	0.0	0.0	1.0	1.0	0.0	0.0	0.0	0.0	1.0	1.0	1.0	0.0	0.0	1.0	0.0	0.0	1.0	1.0	0.0	0.0	0.0	1.0	1.0	1.0
0.0	1.0	1.0	1.0	0.0	0.0	0.0	1.0	1.0	1.0	0.0	1.0	0.0	0.0	1.0	0.0	1.0	1.0	0.0	0.0	0.0	1.0	0.0	0.0	0.0	1.0	1.0	0.0	0.0	0.0	1.0	0.0	1.0	1.0	1.0	0.0
0.0	0.0	1.0	1.0	1.0	0.0	0.0	1.0	0.0	1.0	0.0	0.0	1.0	0.0	0.0	0.0	0.0	1.0	1.0	0.0	1.0	0.0	0.0	1.0	1.0	0.0	1.0	0.0	1.0	0.0	1.0	1.0	0.0	0.0	1.0	1.0
0.0	0.0	0.0	1.0	1.0	1.0	0.0	1.0	0.0	0.0	1.0	0.0	0.0	1.0	0.0	0.0	0.0	0.0	1.0	1.0	0.0	1.0	0.0	0.0	1.0	1.0	0.0	1.0	0.0	0.0	0.0	1.0	0.0	1.0	1.0	0.0
0.0	0.0	1.0	1.0	0.0	0.0	0.0	1.0	0.0	0.0	1.0	1.0	0.0	1.0	0.0	1.0	1.0	1.0	1.0	0.0	1.0	1.0	1.0	0.0	0.0	0.0	1.0	0.0	1.0	1.0	1.0	0.0	1.0	0.0	0.0	1.0
0.0	0.0	1.0	1.0	1.0	0.0	0.0	1.0	0.0	0.0	0.0	0.0	1.0	0.0	1.0	0.0	1.0	0.0	0.0	1.0	0.0	1.0	1.0	1.0	0.0	1.0	0.0	1.0	0.0	1.0	0.0	0.0	1.0	1.0	1.0	0.0
0.0	0.0	1.0	0.0	0.0	1.0	0.0	1.0	0.0	0.0	0.0	0.0	0.0	1.0	0.0	1.0	1.0	0.0	1.0	0.0	0.0	0.0	1.0	1.0	0.0	0.0	0.0	1.0	1.0	0.0	0.0	1.0	1.0	1.0	0.0	1.0
0.0	1.0	0.0	0.0	1.0	0.0	0.0	0.0	1.0	1.0	1.0	1.0	0.0	0.0	0.0	1.0	1.0	1.0	1.0	0.0	0.0	0.0	1.0	0.0	1.0	1.0	0.0	1.0	0.0	0.0	0.0	1.0	0.0	0.0	1.0	1.0
0.0	0.0	1.0	0.0	0.0	1.0	0.0	0.0	1.0	0.0	1.0	0.0	1.0	0.0	0.0	0.0	0.0	1.0	1.0	1.0	1.0	0.0	0.0	0.0	0.0	1.0	1.0	0.0	0.0	1.0	1.0	0.0	1.0	0.0	1.0	0.0
0.0	0.0	0.0	1.0	1.0	0.0	0.0	0.0	1.0	0.0	0.0	1.0	0.0	0.0	1.0	0.0	0.0	1.0	1.0	1.0	1.0	0.0	1.0	0.0	1.0	0.0	0.0	1.0	1.0	1.0	0.0	1.0	0.0	1.0	0.0	1.0
0.0	0.0	0.0	1.0	1.0	1.0	0.0	0.0	1.0	0.0	0.0	0.0	1.0	0.0	0.0	1.0	0.0	1.0	0.0	0.0	0.0	1.0	0.0	1.0	1.0	0.0	1.0	0.0	1.0	1.0	0.0	0.0	1.0	0.0	0.0	1.0
0.0	1.0	0.0	1.0	0.0	1.0	0.0	0.0	0.0	1.0	1.0	1.0	0.0	0.0	0.0	0.0	1.0	0.0	0.0	1.0	0.0	0.0	0.0	1.0	1.0	1.0	1.0	0.0	1.0	0.0	1.0	1.0	0.0	0.0	0.0	0.0
0.0	0.0	0.0	0.0	1.0	1.0	0.0	0.0	0.0	1.0	0.0	1.0	0.0	0.0	0.0	1.0	0.0	0.0	1.0	1.0	1.0	0.0	0.0	1.0	0.0	1.0	0.0	1.0	0.0	1.0	1.0	0.0	1.0	1.0	0.0	0.0
DIFF_EDGE
0 0
CHROM_NUMBER
7
EOF
